p cnf 7 16 
1 -2 -3 -4 0
1 -2 -3 4 0
1 -2 3 -4 0
1 -2 3 4 0
1 2 -3 -4 0
1 2 -3 4 0
1 2 3 -4 0
1 2 3 4 0
-1 -5 -6 -7 0
-1 -5 -6 7 0
-1 -5 6 -7 0
-1 -5 6 7 0
-1 5 -6 -7 0
-1 5 -6 7 0
-1 5 6 -7 0
-1 5 6 7 0
